243 5
10 10 10 10 10 

0 0 0 0 0 0 2 2 14 
0 0 0 0 0 0 1 3 
9 0 1 0 0 0 3 12 8 4 
4 0 5 0 0 0 2 11 5 
8 0 5 0 0 0 1 6 
5 0 5 0 0 0 1 7 
7 0 6 0 0 0 2 9 54 
10 0 5 0 0 0 1 9 
7 0 8 0 0 0 1 10 
6 0 6 0 0 0 1 13 
8 0 3 0 0 0 1 13 
2 0 6 0 0 0 1 13 
0 0 0 0 0 0 3 36 48 60 
0 0 0 0 0 0 1 15 
8 0 0 1 1 0 1 16 
4 0 0 2 5 0 2 19 17 
3 0 0 8 5 0 1 18 
4 0 0 4 5 0 2 21 20 
2 0 0 2 8 0 1 20 
7 0 0 10 4 0 2 26 22 
4 0 0 5 3 0 2 26 22 
10 0 0 6 2 0 2 25 23 
9 0 0 9 6 0 1 24 
4 0 0 4 6 0 2 28 27 
3 0 0 7 3 0 1 27 
8 0 0 2 3 0 2 27 201 
7 0 0 4 5 0 1 29 
10 0 0 5 7 0 1 29 
3 0 0 5 4 0 1 30 
5 0 0 7 4 0 1 31 
7 0 0 6 9 0 1 32 
3 0 0 3 5 0 1 33 
7 0 0 3 9 0 1 34 
4 0 0 7 6 0 1 35 
0 0 0 0 0 0 1 72 
0 0 0 0 0 0 2 37 39 
2 0 0 0 0 1 1 38 
2 0 0 0 0 5 2 42 40 
6 0 0 0 0 4 2 42 40 
7 0 0 0 0 3 1 41 
5 0 0 0 0 7 1 43 
2 0 0 0 0 4 1 43 
7 0 0 0 0 5 2 46 44 
1 0 0 0 0 5 1 45 
3 0 0 0 0 7 2 47 238 
1 0 0 0 0 9 1 47 
0 0 0 0 0 0 1 72 
0 0 0 0 0 0 2 49 53 
10 1 0 0 0 0 2 58 50 
4 7 0 0 0 0 1 51 
8 7 0 0 0 0 1 52 
9 2 0 0 0 0 2 57 54 
9 3 0 0 0 0 2 57 55 
2 9 0 0 0 0 1 55 
10 5 0 0 0 0 1 56 
2 4 0 0 0 0 1 59 
5 8 0 0 0 0 2 59 188 
5 4 0 0 0 0 1 59 
0 0 0 0 0 0 1 72 
0 0 0 0 0 0 1 61 
3 0 1 0 0 0 1 62 
7 0 8 0 0 0 1 63 
2 0 1 0 0 0 3 68 66 64 
4 0 5 0 0 0 1 65 
4 0 5 0 0 0 1 67 
2 0 4 0 0 0 1 67 
5 0 6 0 0 0 2 69 155 
9 0 10 0 0 0 1 70 
1 0 5 0 0 0 1 71 
8 0 5 0 0 0 1 71 
0 0 0 0 0 0 1 72 
0 0 0 0 0 0 4 73 85 97 109 
0 0 0 0 0 0 1 74 
2 0 0 0 1 0 1 75 
3 0 0 0 6 0 1 76 
5 0 0 0 4 0 3 83 80 77 
10 0 0 0 7 0 2 82 78 
5 0 0 0 8 0 1 79 
1 0 0 0 9 0 1 81 
10 0 0 0 1 0 1 82 
1 0 0 0 6 0 1 84 
7 0 0 0 2 0 2 84 234 
4 0 0 0 6 0 1 84 
0 0 0 0 0 0 1 121 
0 0 0 0 0 0 1 86 
5 0 1 0 0 0 1 87 
4 0 5 0 0 0 2 95 88 
9 0 4 0 0 0 1 89 
5 0 8 0 0 0 3 94 90 202 
8 0 6 0 0 0 2 93 91 
2 0 8 0 0 0 1 92 
5 0 7 0 0 0 1 96 
7 0 3 0 0 0 1 96 
7 0 3 0 0 0 1 96 
10 0 5 0 0 0 1 96 
0 0 0 0 0 0 1 121 
0 0 0 0 0 0 3 98 106 107 
2 0 0 0 1 0 1 99 
5 0 0 0 8 0 1 100 
3 0 0 0 4 0 1 101 
1 0 0 0 8 0 2 105 102 
2 0 0 0 4 0 1 103 
1 0 0 0 3 0 2 104 221 
4 0 0 0 7 0 1 108 
10 0 0 0 5 0 1 108 
2 0 0 0 5 0 1 108 
7 0 0 0 5 0 1 108 
0 0 0 0 0 0 1 121 
0 0 0 0 0 0 2 110 114 
3 0 0 1 0 0 1 111 
8 0 0 4 0 0 2 119 112 
7 0 0 2 0 0 1 113 
3 0 0 7 0 0 1 115 
7 0 0 5 0 0 1 115 
2 0 0 9 0 0 2 118 116 
3 0 0 8 0 0 1 117 
7 0 0 3 0 0 2 120 151 
6 0 0 5 0 0 1 120 
4 0 0 6 0 0 1 120 
0 0 0 0 0 0 1 121 
0 0 0 0 0 0 5 122 134 146 158 170 
0 0 0 0 0 0 3 123 125 132 
4 0 0 0 0 1 1 124 
4 0 0 0 0 6 1 126 
10 0 0 0 0 7 2 131 128 
10 0 0 0 0 5 1 127 
5 0 0 0 0 5 1 128 
10 0 0 0 0 5 1 129 
1 0 0 0 0 6 1 130 
3 0 0 0 0 6 1 133 
1 0 0 0 0 5 1 133 
1 0 0 0 0 4 1 133 
0 0 0 0 0 0 1 182 
0 0 0 0 0 0 2 135 138 
2 0 0 1 0 0 2 142 136 
4 0 0 10 0 0 1 137 
4 0 0 3 0 0 2 144 139 
9 0 0 4 0 0 1 139 
9 0 0 6 0 0 1 140 
7 0 0 2 0 0 1 141 
10 0 0 4 0 0 1 143 
2 0 0 6 0 0 1 143 
10 0 0 8 0 0 1 145 
2 0 0 6 0 0 1 145 
0 0 0 0 0 0 1 182 
0 0 0 0 0 0 3 147 153 156 
3 0 0 0 1 0 2 155 148 
7 0 0 0 7 0 1 149 
9 0 0 0 4 0 1 150 
1 0 0 0 10 0 1 151 
9 0 0 0 7 0 1 152 
8 0 0 0 3 0 1 154 
3 0 0 0 6 0 1 155 
10 0 0 0 2 0 1 157 
9 0 0 0 8 0 1 157 
7 0 0 0 2 0 1 157 
0 0 0 0 0 0 1 182 
0 0 0 0 0 0 2 159 162 
8 0 0 0 1 0 1 160 
4 0 0 0 3 0 2 168 161 
5 0 0 0 6 0 2 166 163 
9 0 0 0 8 0 2 166 163 
6 0 0 0 5 0 1 164 
7 0 0 0 5 0 1 165 
4 0 0 0 7 0 1 167 
8 0 0 0 5 0 1 167 
3 0 0 0 2 0 1 169 
5 0 0 0 8 0 1 169 
0 0 0 0 0 0 1 182 
0 0 0 0 0 0 1 171 
8 0 0 0 0 1 1 172 
6 0 0 0 0 3 3 178 174 173 
8 0 0 0 0 6 2 177 175 
10 0 0 0 0 4 2 177 176 
10 0 0 0 0 6 1 176 
9 0 0 0 0 7 1 179 
7 0 0 0 0 6 1 179 
4 0 0 0 0 2 1 179 
7 0 0 0 0 9 1 180 
5 0 0 0 0 6 1 181 
0 0 0 0 0 0 1 182 
0 0 0 0 0 0 5 183 195 207 219 231 
0 0 0 0 0 0 2 184 185 
1 0 0 0 1 0 2 188 186 
7 0 0 0 8 0 2 188 187 
4 0 0 0 6 0 1 187 
10 0 0 0 3 0 1 189 
8 0 0 0 8 0 1 189 
10 0 0 0 5 0 1 190 
3 0 0 0 5 0 1 191 
7 0 0 0 5 0 2 193 192 
7 0 0 0 2 0 1 194 
6 0 0 0 7 0 1 194 
0 0 0 0 0 0 1 243 
0 0 0 0 0 0 2 196 198 
4 1 0 0 0 0 2 200 197 
2 4 0 0 0 0 1 199 
4 4 0 0 0 0 1 199 
9 7 0 0 0 0 1 201 
10 5 0 0 0 0 1 201 
10 4 0 0 0 0 2 203 202 
9 7 0 0 0 0 1 204 
2 6 0 0 0 0 1 204 
4 7 0 0 0 0 1 205 
8 5 0 0 0 0 1 206 
0 0 0 0 0 0 1 243 
0 0 0 0 0 0 1 208 
7 1 0 0 0 0 2 210 209 
9 6 0 0 0 0 2 214 212 
10 4 0 0 0 0 1 211 
9 6 0 0 0 0 1 213 
7 3 0 0 0 0 1 213 
7 7 0 0 0 0 1 215 
5 9 0 0 0 0 1 215 
6 6 0 0 0 0 1 216 
9 5 0 0 0 0 1 217 
10 3 0 0 0 0 1 218 
0 0 0 0 0 0 1 243 
0 0 0 0 0 0 1 220 
6 0 0 1 0 0 1 221 
1 0 0 5 0 0 1 222 
10 0 0 5 0 0 2 225 223 
2 0 0 5 0 0 2 227 224 
3 0 0 6 0 0 1 226 
2 0 0 4 0 0 1 226 
1 0 0 7 0 0 2 229 228 
8 0 0 3 0 0 1 228 
5 0 0 7 0 0 1 230 
4 0 0 7 0 0 1 230 
0 0 0 0 0 0 1 243 
0 0 0 0 0 0 2 232 234 
10 0 0 0 1 0 1 233 
5 0 0 0 3 0 2 236 235 
8 0 0 0 8 0 2 236 235 
3 0 0 0 8 0 1 237 
1 0 0 0 4 0 1 237 
3 0 0 0 4 0 1 238 
5 0 0 0 7 0 1 239 
1 0 0 0 4 0 2 241 240 
5 0 0 0 7 0 1 242 
3 0 0 0 4 0 1 242 
0 0 0 0 0 0 1 243 
0 0 0 0 0 0 0 
